c File: instances/32_0.35_2.col
c
c Description: Random graph of size 32 vertices and P(0.35) of edges between any two vertices.
p col 32 496
e 1 5
e 1 11
e 1 13
e 1 15
e 1 16
e 1 18
e 1 19
e 1 20
e 1 21
e 1 30
e 1 32
e 2 4
e 2 6
e 2 7
e 2 10
e 2 12
e 2 17
e 2 22
e 2 23
e 2 24
e 2 32
e 3 5
e 3 9
e 3 10
e 3 11
e 3 17
e 3 19
e 3 21
e 3 26
e 3 29
e 3 31
e 4 6
e 4 9
e 4 12
e 4 14
e 4 16
e 4 21
e 4 23
e 4 24
e 4 25
e 4 28
e 5 8
e 5 9
e 5 14
e 5 17
e 5 18
e 5 22
e 5 31
e 5 32
e 6 8
e 6 16
e 6 18
e 6 19
e 6 21
e 6 26
e 7 8
e 7 9
e 7 10
e 7 14
e 7 15
e 7 16
e 7 17
e 7 20
e 7 22
e 7 23
e 7 28
e 7 30
e 7 32
e 8 14
e 8 20
e 8 21
e 8 22
e 8 25
e 8 27
e 8 28
e 8 29
e 8 30
e 8 31
e 8 32
e 9 10
e 9 16
e 9 18
e 9 19
e 9 21
e 9 24
e 9 28
e 9 29
e 9 30
e 10 11
e 10 12
e 10 13
e 10 16
e 10 18
e 10 19
e 10 22
e 10 25
e 10 27
e 10 28
e 10 30
e 11 12
e 11 13
e 11 15
e 11 19
e 11 25
e 11 27
e 11 32
e 12 14
e 12 20
e 12 24
e 12 27
e 12 29
e 13 15
e 13 16
e 13 28
e 14 16
e 14 20
e 14 22
e 14 26
e 14 30
e 15 16
e 15 17
e 15 20
e 15 25
e 15 28
e 15 29
e 16 19
e 16 21
e 16 24
e 16 26
e 16 29
e 16 30
e 17 28
e 17 31
e 18 19
e 18 21
e 18 25
e 18 29
e 18 31
e 18 32
e 19 24
e 19 26
e 19 29
e 19 30
e 19 31
e 20 22
e 20 26
e 20 27
e 20 28
e 20 30
e 20 31
e 20 32
e 21 22
e 21 29
e 21 30
e 21 31
e 21 32
e 22 24
e 22 28
e 22 31
e 23 24
e 23 28
e 23 29
e 23 30
e 24 26
e 24 29
e 24 31
e 25 27
e 25 29
e 26 27
e 26 30
e 27 28
e 27 30
e 27 31
e 28 31
e 29 30
e 31 32